1000
[5,7,8,17,26,29,33,38,40,43,44,54,57,58,59,62,65,72,75,96,101,110,113,122,125,130,133,134,135,140,142,143,149,152,155,163,170,173,174,175,178,181,184,185,188,189,190,191,197,200,201,208,210,214,222,224,231,233,234,235,243,258,264,266,275,279,293,299,303,306,308,310,314,317,318,322,336,341,343,346,356,359,360,372,373,374,376,379,380,382,384,397,399,402,405,412,413,416,417,419,421,425,426,430,431,441,442,446,448,452,459,460,467,470,475,480,489,494,498,501,502,510,511,516,520,522,526,528,533,535,545,551,559,568,570,578,581,586,587,590,599,600,602,612,623,625,633,635,637,638,640,641,644,648,650,654,671,674,676,677,679,680,683,689,694,695,696,703,707,709,711,725,728,738,742,745,746,749,755,764,766,770,771,779,780,782,784,792,796]
[1,1,1,1,1,1,1,2,1,1,1,1,1,2,1,1,1,1,1,1,1,1,1,1,1,1,1,1,1,1,1,1,1,1,1,1,1,1,1,1,1,1,2,1,1,1,1,1,1,1,1,1,1,2,1,1,1,1,2,1,1,1,1,1,1,1,1,1,1,1,1,1,1,1,1,2,1,1,1,1,1,1,1,1,1,1,1,1,1,1,1,1,1,1,1,1,1,1,1,1,1,1,1,1,1,1,1,1,1,1,1,1,1,1,1,1,1,1,1,1,1,1,2,1,1,1,1,1,1,1,1,1,2,1,1,1,1,1,1,1,1,1,1,1,2,1,1,1,1,1,1,1,1,1,1,1,1,1,2,1,1,1,1,1,1,1,2,1,1,1,1,1,1,1,1,1,1,1,1,1,1,1,1,1,1,1,1,1,1]
